letting n_nurses=25
letting n_days=7
letting n_shift_types=4
letting max_covers=13
letting t_covers=87
letting covers=[13,2,4,0,10,7,0,0,9,7,0,0,5,8,0,0,1,0,0,0,10,4,1,0,4,1,1,0]
letting prefes=[2,4,1,2,1,1,3,3,1,1,3,3,1,1,3,3,2,4,1,2,1,1,3,3,1,1,3,3,1,3,2,2,2,1,3,3,2,1,3,3,2,1,3,3,1,3,2,2,2,1,3,3,2,1,3,3,2,4,2,2,2,1,3,3,2,1,3,3,2,1,3,3,2,4,2,2,2,1,3,3,2,1,3,3,2,3,2,1,2,2,3,3,2,2,3,3,2,2,3,3,2,3,2,1,2,2,3,3,2,2,3,3,2,4,1,2,2,2,3,3,2,2,3,3,2,2,3,3,2,4,1,2,2,2,3,3,2,2,3,3,2,4,2,2,2,1,3,3,2,1,3,3,2,1,3,3,2,4,2,2,2,1,3,3,2,1,3,3,2,4,2,2,2,1,3,3,2,1,3,3,2,1,3,3,2,4,2,2,2,1,3,3,2,1,3,3,2,4,2,2,2,1,1,1,2,1,1,1,2,1,1,1,2,4,2,2,2,1,1,1,2,1,1,1,1,4,2,2,1,1,3,3,1,1,3,3,1,1,3,3,1,4,2,2,1,1,3,3,1,1,3,3,2,3,2,1,1,1,3,3,1,1,3,3,1,1,3,3,2,3,2,1,1,1,3,3,1,1,3,3,2,4,1,2,2,1,3,3,2,1,3,3,2,1,3,3,2,4,1,2,2,1,3,3,2,1,3,3,1,3,2,1,2,1,3,3,2,1,3,3,2,1,3,3,1,3,2,1,2,1,3,3,2,1,3,3,2,4,2,2,2,1,3,3,2,1,3,3,2,1,3,3,2,4,2,2,2,1,3,3,2,1,3,3,2,3,1,2,2,1,1,1,2,1,1,1,2,1,1,1,2,3,1,2,2,1,1,1,2,1,1,1,2,4,2,2,2,1,1,1,2,1,1,1,2,1,1,1,2,4,2,2,2,1,1,1,2,1,1,1,2,4,2,2,1,1,1,1,1,1,1,1,1,1,1,1,2,4,2,2,1,1,1,1,1,1,1,1,1,4,2,1,2,2,3,3,2,2,3,3,2,2,3,3,1,4,2,1,2,2,3,3,2,2,3,3,2,4,2,2,2,1,3,3,2,1,3,3,2,1,3,3,2,4,2,2,2,1,3,3,2,1,3,3,2,4,2,2,2,2,3,3,2,2,3,3,2,2,3,3,2,4,2,2,2,2,3,3,2,2,3,3,1,4,2,1,2,1,3,3,2,1,3,3,2,1,3,3,1,4,2,1,2,1,3,3,2,1,3,3,2,4,2,2,2,1,1,1,2,1,1,1,2,1,1,1,2,4,2,2,2,1,1,1,2,1,1,1,2,4,2,2,2,1,3,3,2,1,3,3,2,1,3,3,2,4,2,2,2,1,3,3,2,1,3,3,2,4,1,2,2,1,3,3,2,1,3,3,2,1,3,3,2,4,1,2,2,1,3,3,2,1,3,3,2,4,2,2,2,1,3,3,2,1,3,3,2,1,3,3,2,4,2,2,2,1,3,3,2,1,3,3,2,4,2,2,1,2,3,3,1,2,3,3,1,2,3,3,2,4,2,2,1,2,3,3,1,2,3,3]
letting ub =  267
